K2LiBO3
1.0
   0.0000000000000000    8.8568879999999996    0.0000000000000000
   6.1655020000000000    0.0000000000000000    0.0000000000000000
   0.0000000000000000   -1.6079109999999999   -7.2641090000000004
K  Li B  O
8  4  4  12
direct
   0.6735210000000000    0.1670450000000000    0.6750600000000000 K
   0.5000000000000000    0.6646310000000000    0.5000000000000000 K
   0.5000000000000000    0.4976530000000000    0.0000000000000000 K
   0.3264790000000000    0.1670450000000000    0.3249400000000000 K
   0.1735210000000000    0.6670449999999999    0.6750600000000000 K
   0.0000000000000000    0.1646310000000000    0.5000000000000000 K
   0.0000000000000000    0.9976530000000001    0.0000000000000000 K
   0.8264790000000000    0.6670449999999999    0.3249400000000000 K
   0.3640574999999999    0.9051534999999999    0.0317050000000000 Li
   0.6359425000000001    0.9051534999999999    0.9682950000000000 Li
   0.8640574999999999    0.4051534999999999    0.0317050000000000 Li
   0.1359425000000001    0.4051534999999999    0.9682950000000000 Li
   0.3520920000000000    0.1383080000000000    0.7834500000000000 B
   0.6479080000000000    0.1383080000000000    0.2165500000000000 B
   0.8520919999999998    0.6383079999999999    0.7834500000000000 B
   0.1479080000000000    0.6383079999999999    0.2165500000000000 B
   0.4324110000000000    0.9391630000000000    0.7871970000000000 O
   0.5675890000000000    0.9391630000000000    0.2128030000000000 O
   0.3692850000000000    0.3062819999999999    0.6661920000000000 O
   0.7413655000000000    0.1635075000000000    0.0865300000000000 O
   0.2586345000000000    0.1635075000000000    0.9134700000000000 O
   0.6307150000000000    0.3062819999999999    0.3338080000000000 O
   0.9324110000000001    0.4391630000000000    0.7871970000000000 O
   0.0675890000000000    0.4391630000000000    0.2128030000000000 O
   0.8692850000000001    0.8062819999999999    0.6661920000000000 O
   0.2413655000000000    0.6635075000000001    0.0865300000000000 O
   0.7586344999999999    0.6635075000000001    0.9134700000000000 O
   0.1307150000000000    0.8062819999999999    0.3338080000000000 O
