KCrP2S7
1.0
   0.0000000000000000    8.5721524422754811    0.0000000000000000
   9.6913999400000002    0.0000000000000000    0.0000000000000000
   0.0000000000000000   -0.8445563246148111   -6.3280263825898828
K  Cr P  S
2  2  4  14
direct
   0.5000000000000000    0.5994645700000000    0.5000000000000000 K
   0.0000000000000000    0.0994645700000000    0.5000000000000000 K
   0.5000000000000000    0.0006457800000002    0.0000000000000000 Cr
   0.0000000000000000    0.5006457800000002    0.0000000000000000 Cr
   0.7967060600000001    0.8461332000000000    0.9220648200000000 P
   0.2032939399999999    0.8461332000000000    0.0779351800000000 P
   0.2967060600000001    0.3461332000000000    0.9220648200000000 P
   0.7032939400000000    0.3461332000000000    0.0779351800000000 P
   0.5000000000000000    0.4734895099999999    0.0000000000000000 S
   0.6488165250000000    0.1725773450000001    0.2247462100000001 S
   0.6617855750000001    0.9719980250000000    0.7209713700000001 S
   0.3382144249999999    0.9719980250000000    0.2790286299999999 S
   0.3186459650000000    0.8302915049999999    0.8238915800000000 S
   0.6813540350000000    0.8302915049999999    0.1761084200000000 S
   0.3511834750000000    0.1725773450000001    0.7752537899999999 S
   0.0000000000000000    0.9734895099999998    0.0000000000000000 S
   0.1488165250000000    0.6725773450000001    0.2247462100000001 S
   0.1617855750000001    0.4719980250000000    0.7209713700000001 S
   0.8382144249999999    0.4719980250000000    0.2790286299999999 S
   0.8186459650000000    0.3302915049999999    0.8238915800000000 S
   0.1813540350000000    0.3302915049999999    0.1761084200000000 S
   0.8511834750000000    0.6725773450000001    0.7752537899999999 S
