Ce2S4O17
1.0
   0.0000000000000000    6.9119089999999996    0.0000000000000000
   5.3945889999999999    0.0000000000000000    0.0000000000000000
   0.0000000000000000   -1.4798079999999998   -9.0411110000000008
Ce S  O
2  4  17
direct
   0.2064670000000001    0.5000000000000000    0.0629890000000001 Ce
   0.8166260000000001    0.0000000000000000    0.5205350000000001 Ce
   0.7369660000000001    0.5000000000000000    0.2313650000000000 S
   0.1987370000000002    0.0000000000000000    0.8693930000000001 S
   0.2854730000000000    0.0000000000000000    0.3523900000000001 S
   0.8307980000000000    0.5000000000000000    0.7111530000000001 S
   0.5647990000000001    0.5000000000000000    0.1135250000000001 O
   0.3220790000000001    0.2282850000000000    0.8879170000000000 O
   0.3220790000000001    0.7717150000000000    0.8879170000000000 O
   0.9184680000000001    0.5000000000000000    0.1643520000000001 O
   0.9496540000000000    0.5000000000000000    0.8612700000000000 O
   0.2862600000000001    0.7745330000000000    0.2588950000000000 O
   0.2862600000000001    0.2254670000000000    0.2588950000000000 O
   0.0773760000000001    0.0000000000000000    0.9903120000000000 O
   0.4588270000000000    0.0000000000000000    0.4690940000000000 O
   0.7345840000000001    0.7244940000000000    0.3253240000000001 O
   0.7345840000000001    0.2755060000000000    0.3253240000000001 O
   0.7059610000000001    0.7271330000000000    0.6930420000000002 O
   0.7059610000000001    0.2728670000000000    0.6930420000000002 O
   0.0784250000000001    0.0000000000000000    0.7202490000000001 O
   0.1052190000000001    0.0000000000000000    0.4206120000000001 O
   0.9535180000000000    0.5000000000000000    0.5920660000000001 O
   0.6997800000000001    0.0000000000000000    0.9801390000000000 O
