Mo8P5
1.0
   0.0000000000000000    6.5464993391726294    0.0000000000000000
   3.2010469399999999    0.0000000000000000    0.0000000000000000
   0.0000000000000000   -3.1445895170890936   -8.8701043145974889
Mo P
8  5
direct
   0.9954340300000000    0.0000000000000000    0.9965995300000000 Mo
   0.7643565900000000    0.0000000000000000    0.2197945600000001 Mo
   0.2106105800000001    0.0000000000000000    0.7514370800000001 Mo
   0.6411023900000001    0.0000000000000000    0.6922009800000002 Mo
   0.2017746100000001    0.0000000000000000    0.4294879700000002 Mo
   0.6017797800000001    0.5000000000000000    0.9488786400000000 Mo
   0.3908196000000000    0.5000000000000000    0.2190133500000001 Mo
   0.8699208300000001    0.5000000000000000    0.5017471100000002 Mo
   0.5759300100000001    0.0000000000000000    0.4253291600000001 P
   0.3754444000000000    0.0000000000000000    0.0183183400000001 P
   0.9368259800000001    0.5000000000000000    0.7912649100000000 P
   0.3469537000000001    0.5000000000000000    0.6242437300000001 P
   0.0217464900000001    0.5000000000000000    0.2113846500000001 P
