VInSe2O8
1.0
   0.0000000000000000    4.8267530000000001    0.0000000000000000
   6.9573239999999998    0.0000000000000000    0.0000000000000000
   0.0000000000000000   -1.5191479999999964  -10.6807320000000008
V  In Se O
2  2  4  16
direct
   0.8739800000000000    0.7508280000000001    0.5420069999999998 V
   0.8739800000000000    0.2491719999999999    0.5420069999999998 V
   0.7857740000000000    0.7502000000000000    0.0514269999999998 In
   0.7857740000000000    0.2498000000000000    0.0514269999999998 In
   0.3441609999999999    0.5000000000000000    0.2370179999999997 Se
   0.2349829999999999    0.0000000000000000    0.8622029999999999 Se
   0.5274750000000000    0.0000000000000000    0.3035179999999998 Se
   0.6819770000000001    0.5000000000000000    0.7681009999999999 Se
   0.1766930000000000    0.6998880000000001    0.1689729999999998 O
   0.1766930000000000    0.3001119999999999    0.1689729999999998 O
   0.9957660000000000    0.0000000000000000    0.9763710000000000 O
   0.4328840000000000    0.8014019999999999    0.9096850000000000 O
   0.4328840000000000    0.1985980000000001    0.9096850000000000 O
   0.8453900000000000    0.5000000000000000    0.9261509999999999 O
   0.6329090000000001    0.5000000000000000    0.1489259999999998 O
   0.6599780000000000    0.0000000000000000    0.1580749999999997 O
   0.7138380000000000    0.8009480000000000    0.3647189999999999 O
   0.7138380000000000    0.1990520000000000    0.3647189999999999 O
   0.7555370000000000    0.5000000000000000    0.5118019999999998 O
   0.2079400000000000    0.7536110000000000    0.5353749999999997 O
   0.2079400000000000    0.2463890000000000    0.5353749999999997 O
   0.8649530000000000    0.6960940000000000    0.7212239999999999 O
   0.8649530000000000    0.3039060000000000    0.7212239999999999 O
   0.7788010000000000    0.0000000000000000    0.5748329999999997 O
